Grasp exp. instance_n_20_m_5_id_2.lp tipoLifted 0 szPool 5 nIteration 50 alpha 0.6 
Academic license - for non-commercial use only
Read LP format model from file ../input/instancesGenerated/instance_n_20_m_5_id_2.lp
Reading time = 0.00 seconds
: 5 rows, 20 columns, 100 nonzeros
Optimize a model with 5 rows, 20 columns and 100 nonzeros
Variable types: 0 continuous, 20 integer (20 binary)
Coefficient statistics:
  Matrix range     [1e+00, 1e+01]
  Objective range  [1e+00, 1e+01]
  Bounds range     [1e+00, 1e+00]
  RHS range        [5e+01, 6e+01]
Found heuristic solution: objective 68.0000000

Explored 0 nodes (0 simplex iterations) in 0.00 seconds
Thread count was 1 (of 8 available processors)

Solution count 1: 68 
No other solutions better than 0

Solution limit reached
Best objective 6.800000000000e+01, best bound -, gap -
C_1:	 4.00 x_1  = 1.000000 + 9.00 x_2  = 0.000000 + 5.00 x_3  = 1.000000 + 10.00 x_4  = 0.000000 + 5.00 x_5  = 0.000000 + 4.00 x_6  = 1.000000 + 4.00 x_7  = 1.000000 + 2.00 x_8  = 1.000000 + 3.00 x_9  = 0.308131 + 1.00 x_10  = 0.196862 + 7.00 x_11  = 1.000000 + 4.00 x_12  = 1.000000 + 10.00 x_13  = 0.299572 + 6.00 x_14  = 0.000000 + 1.00 x_15  = 0.883024 + 10.00 x_16  = 1.000000 + 6.00 x_17  = 1.000000 + 9.00 x_18  = 0.000000 + 1.00 x_19  = 0.000000 + 2.00 x_20  = 0.000000 <= 51.00
C_2:	 6.00 x_1  = 1.000000 + 10.00 x_2  = 0.000000 + 10.00 x_3  = 1.000000 + 6.00 x_4  = 0.000000 + 8.00 x_5  = 0.000000 + 3.00 x_6  = 1.000000 + 6.00 x_7  = 1.000000 + 3.00 x_8  = 1.000000 + 6.00 x_9  = 0.308131 + 10.00 x_10  = 0.196862 + 7.00 x_11  = 1.000000 + 9.00 x_12  = 1.000000 + 1.00 x_13  = 0.299572 + 2.00 x_14  = 0.000000 + 1.00 x_15  = 0.883024 + 7.00 x_16  = 1.000000 + 7.00 x_17  = 1.000000 + 6.00 x_18  = 0.000000 + 9.00 x_19  = 0.000000 + 9.00 x_20  = 0.000000 <= 63.00
C_3:	 6.00 x_1  = 1.000000 + 7.00 x_2  = 0.000000 + 2.00 x_3  = 1.000000 + 5.00 x_4  = 0.000000 + 2.00 x_5  = 0.000000 + 4.00 x_6  = 1.000000 + 6.00 x_7  = 1.000000 + 9.00 x_8  = 1.000000 + 5.00 x_9  = 0.308131 + 6.00 x_10  = 0.196862 + 10.00 x_11  = 1.000000 + 2.00 x_12  = 1.000000 + 7.00 x_13  = 0.299572 + 9.00 x_14  = 0.000000 + 7.00 x_15  = 0.883024 + 4.00 x_16  = 1.000000 + 3.00 x_17  = 1.000000 + 3.00 x_18  = 0.000000 + 8.00 x_19  = 0.000000 + 9.00 x_20  = 0.000000 <= 57.00
C_4:	 4.00 x_1  = 1.000000 + 5.00 x_2  = 0.000000 + 9.00 x_3  = 1.000000 + 6.00 x_4  = 0.000000 + 8.00 x_5  = 0.000000 + 9.00 x_6  = 1.000000 + 3.00 x_7  = 1.000000 + 4.00 x_8  = 1.000000 + 4.00 x_9  = 0.308131 + 3.00 x_10  = 0.196862 + 4.00 x_11  = 1.000000 + 2.00 x_12  = 1.000000 + 9.00 x_13  = 0.299572 + 7.00 x_14  = 0.000000 + 8.00 x_15  = 0.883024 + 2.00 x_16  = 1.000000 + 2.00 x_17  = 1.000000 + 4.00 x_18  = 0.000000 + 1.00 x_19  = 0.000000 + 8.00 x_20  = 0.000000 <= 51.00
C_5:	 9.00 x_1  = 1.000000 + 2.00 x_2  = 0.000000 + 9.00 x_3  = 1.000000 + 6.00 x_4  = 0.000000 + 3.00 x_5  = 0.000000 + 6.00 x_6  = 1.000000 + 1.00 x_7  = 1.000000 + 5.00 x_8  = 1.000000 + 10.00 x_9  = 0.308131 + 9.00 x_10  = 0.196862 + 5.00 x_11  = 1.000000 + 5.00 x_12  = 1.000000 + 5.00 x_13  = 0.299572 + 4.00 x_14  = 0.000000 + 3.00 x_15  = 0.883024 + 2.00 x_16  = 1.000000 + 2.00 x_17  = 1.000000 + 5.00 x_18  = 0.000000 + 7.00 x_19  = 0.000000 + 8.00 x_20  = 0.000000 <= 53.00
Solution initial: 87.753210 
Number Constraints Used in Cover:5
GRASP Method!
Number cuts repeat: 0
value: 87.753210
Number Constraints Used in Cover:18
GRASP Method!
Number cuts repeat: 0
value: 87.753210
Number Constraints Used in Cover:31
GRASP Method!
Number cuts repeat: 0
value: 87.753210
Number Constraints Used in Cover:41
GRASP Method!
Number cuts repeat: 0
value: 87.753210
Number Constraints Used in Cover:53
GRASP Method!
Number cuts repeat: 0
value: 87.753210
Number Constraints Used in Cover:61
GRASP Method!
Number cuts repeat: 0
value: 87.753210
Number Constraints Used in Cover:72
GRASP Method!
Number cuts repeat: 0
value: 87.753210
Number Constraints Used in Cover:80
GRASP Method!
Number cuts repeat: 0
value: 87.753210
Number Constraints Used in Cover:87
GRASP Method!
Number cuts repeat: 0
value: 87.753210
Number Constraints Used in Cover:97
GRASP Method!
Number cuts repeat: 0
value: 87.753210
Number Constraints Used in Cover:112
GRASP Method!
Number cuts repeat: 0
value: 87.753210
Number Constraints Used in Cover:115
GRASP Method!
Number cuts repeat: 0
value: 87.753210
Number Constraints Used in Cover:127
GRASP Method!
Number cuts repeat: 0
value: 87.753210
Number Constraints Used in Cover:140
GRASP Method!
Number cuts repeat: 0
value: 87.753210
Number Constraints Used in Cover:152
GRASP Method!
Number cuts repeat: 0
value: 87.753210
Number Constraints Used in Cover:158
GRASP Method!
Number cuts repeat: 0
value: 87.753210
Number Constraints Used in Cover:164
GRASP Method!
Number cuts repeat: 0
value: 87.753210
Number Constraints Used in Cover:177
GRASP Method!
Number cuts repeat: 0
value: 87.753210
Number Constraints Used in Cover:184
GRASP Method!
Number cuts repeat: 0
value: 87.753210
Number Constraints Used in Cover:189
GRASP Method!
Number cuts repeat: 0
value: 87.753210
Number Constraints Used in Cover:194
GRASP Method!
Number cuts repeat: 0
value: 87.753210
Number Constraints Used in Cover:206
GRASP Method!
Number cuts repeat: 0
value: 87.753210
Number Constraints Used in Cover:211
GRASP Method!
Number cuts repeat: 0
value: 87.753210
Number Constraints Used in Cover:220
GRASP Method!
Number cuts repeat: 0
value: 87.753210
Number Constraints Used in Cover:228
GRASP Method!
Number cuts repeat: 0
value: 87.751269
Number Constraints Used in Cover:238
GRASP Method!
Number cuts repeat: 0
value: 87.751269
Number Constraints Used in Cover:248
GRASP Method!
Number cuts repeat: 0
value: 87.751269
Number Constraints Used in Cover:254
GRASP Method!
Number cuts repeat: 0
value: 87.751269
Number Constraints Used in Cover:262
GRASP Method!
Number cuts repeat: 0
value: 87.751269
Number Constraints Used in Cover:266
GRASP Method!
Number cuts repeat: 0
value: 87.751269
Number Constraints Used in Cover:268
GRASP Method!
Number cuts repeat: 0
value: 87.751269
Number Constraints Used in Cover:273
GRASP Method!
Number cuts repeat: 0
value: 87.751269
Number Constraints Used in Cover:282
GRASP Method!
Number cuts repeat: 0
value: 87.751269
Number Constraints Used in Cover:285
GRASP Method!
Number cuts repeat: 0
value: 87.751269
Number Constraints Used in Cover:294
GRASP Method!
Number cuts repeat: 0
value: 87.751269
Number Constraints Used in Cover:301
GRASP Method!
Number cuts repeat: 0
value: 87.751269
Number Constraints Used in Cover:304
GRASP Method!
Number cuts repeat: 0
value: 87.751269
Number Constraints Used in Cover:308
GRASP Method!
Number cuts repeat: 0
value: 87.751269
Number Constraints Used in Cover:313
GRASP Method!
Number cuts repeat: 0
value: 87.751269
Number Constraints Used in Cover:326
GRASP Method!
Number cuts repeat: 0
value: 87.751269
Number Constraints Used in Cover:336
GRASP Method!
Number cuts repeat: 0
value: 87.751269
Number Constraints Used in Cover:342
GRASP Method!
Number cuts repeat: 0
value: 87.751269
Number Constraints Used in Cover:347
GRASP Method!
Number cuts repeat: 0
value: 87.751269
Number Constraints Used in Cover:355
GRASP Method!
Number cuts repeat: 0
value: 87.751269
Number Constraints Used in Cover:363
GRASP Method!
Number cuts repeat: 0
value: 87.751269
Number Constraints Used in Cover:376
GRASP Method!
Number cuts repeat: 0
value: 87.751269
Number Constraints Used in Cover:386
GRASP Method!
Number cuts repeat: 0
value: 87.751269
Number Constraints Used in Cover:392
GRASP Method!
Number cuts repeat: 0
value: 87.751269
Number Constraints Used in Cover:399
GRASP Method!
Number cuts repeat: 0
value: 87.751269
Number Constraints Used in Cover:404
GRASP Method!
Number cuts repeat: 0
value: 87.751269
Number Constraints Used in Cover:412
GRASP Method!
Number cuts repeat: 0
value: 87.725702
Number Constraints Used in Cover:426
GRASP Method!
Number cuts repeat: 0
value: 87.725702
Number Constraints Used in Cover:436
GRASP Method!
Number cuts repeat: 0
value: 87.725702
Number Constraints Used in Cover:451
GRASP Method!
Number cuts repeat: 0
value: 87.725702
Number Constraints Used in Cover:455
GRASP Method!
Number cuts repeat: 0
value: 87.725702
Number Constraints Used in Cover:462
GRASP Method!
Number cuts repeat: 0
value: 87.717518
Number Constraints Used in Cover:468
GRASP Method!
Number cuts repeat: 0
value: 87.717518
Number Constraints Used in Cover:475
GRASP Method!
Number cuts repeat: 0
value: 87.717518
Number Constraints Used in Cover:484
GRASP Method!
Number cuts repeat: 0
value: 87.717518
Number Constraints Used in Cover:491
GRASP Method!
Number cuts repeat: 0
value: 87.717518
Number Constraints Used in Cover:499
GRASP Method!
Number cuts repeat: 0
value: 87.717518
Number Constraints Used in Cover:506
GRASP Method!
Number cuts repeat: 0
value: 87.717518
Number Constraints Used in Cover:518
GRASP Method!
Number cuts repeat: 0
value: 87.717518
Number Constraints Used in Cover:529
GRASP Method!
Number cuts repeat: 0
value: 87.717518
Number Constraints Used in Cover:532
GRASP Method!
Number cuts repeat: 0
value: 87.717518
Number Constraints Used in Cover:535
GRASP Method!
Number cuts repeat: 0
value: 87.717518
Number Constraints Used in Cover:549
GRASP Method!
Number cuts repeat: 0
value: 87.717518
Number Constraints Used in Cover:558
GRASP Method!
Number cuts repeat: 0
value: 87.717518
Number Constraints Used in Cover:566
GRASP Method!
Number cuts repeat: 0
value: 87.717518
Number Constraints Used in Cover:572
GRASP Method!
Number cuts repeat: 0
value: 87.717518
Number Constraints Used in Cover:579
GRASP Method!
Number cuts repeat: 0
value: 87.717518
Number Constraints Used in Cover:585
GRASP Method!
Number cuts repeat: 0
value: 87.717518
Number Constraints Used in Cover:594
GRASP Method!
Number cuts repeat: 0
value: 87.717518
Number Constraints Used in Cover:599
GRASP Method!
Number cuts repeat: 0
value: 87.717518
Number Constraints Used in Cover:604
GRASP Method!
Number cuts repeat: 0
value: 87.717518
Number Constraints Used in Cover:610
GRASP Method!
Number cuts repeat: 0
value: 87.717518
Number Constraints Used in Cover:614
GRASP Method!
Number cuts repeat: 0
value: 87.717518
Number Constraints Used in Cover:620
GRASP Method!
Number cuts repeat: 0
value: 87.717518
Number Constraints Used in Cover:621
GRASP Method!
Number cuts repeat: 0
value: 87.717518
Number Constraints Used in Cover:629
GRASP Method!
Number cuts repeat: 0
value: 87.717518
Number Constraints Used in Cover:637
GRASP Method!
Number cuts repeat: 0
value: 87.717518
Number Constraints Used in Cover:642
GRASP Method!
Number cuts repeat: 0
value: 87.717518
Number Constraints Used in Cover:646
GRASP Method!
Number cuts repeat: 0
value: 87.717518
Number Cuts Final: 647
